NAME : XML100_1125_14
DIMENSION : 101
NB_CLUSTERS : 5
CLUSTERING_ALG : KMeans
CLUSTERING_PARAMS : k(4)
CLUSTERS
1 0
2 1 6 10 12 16 19 28 29 30 32 45 56 57 62 63 67 86 89 91 93 97 98 99 100
3 9 11 17 25 31 35 36 39 41 44 48 51 58 64 65 71 72 77 79 82 85 88 90
4 3 4 5 20 26 37 40 42 43 46 47 49 54 59 60 66 68 69 75 80 81 83 87 92 96
5 2 7 8 13 14 15 18 21 22 23 24 27 33 34 38 50 52 53 55 61 70 73 74 76 78 84 94 95
EOF